p cnf 400 1
400 0
w 1 0.243183
w 2 1 0.125204
w 2 -1 0.0820509
w 3 2 0.366418
w 3 -2 0.602768
w 4 3 0.264302
w 4 -3 0.456419
w 5 4 0
w 5 -4 1
w 6 5 1
w 6 -5 0
w 7 6 1
w 7 -6 0
w 8 7 0
w 8 -7 1
w 9 8 0.520228
w 9 -8 0.914116
w 10 9 0.795317
w 10 -9 0.584394
w 11 10 0.770936
w 11 -10 0.578813
w 12 11 0
w 12 -11 1
w 13 12 0.574957
w 13 -12 0.608207
w 14 13 0.700162
w 14 -13 0.690258
w 15 14 0.0665795
w 15 -14 0.293026
w 16 15 0.330882
w 16 -15 0.749445
w 17 16 0.309227
w 17 -16 0.93293
w 18 17 0
w 18 -17 1
w 19 18 0
w 19 -18 1
w 20 19 0.0124176
w 20 -19 0.0842619
w 21 1 0.605872
w 21 -1 0.879579
w 22 21 2 0
w 22 21 -2 1
w 22 -21 2 0
w 22 -21 -2 1
w 23 22 3 1
w 23 22 -3 0
w 23 -22 3 0
w 23 -22 -3 0
w 24 23 4 0
w 24 23 -4 1
w 24 -23 4 1
w 24 -23 -4 1
w 25 24 5 0.356476
w 25 24 -5 0.631267
w 25 -24 5 0.922489
w 25 -24 -5 0.289406
w 26 25 6 0
w 26 25 -6 1
w 26 -25 6 1
w 26 -25 -6 0
w 27 26 7 1
w 27 26 -7 0
w 27 -26 7 0
w 27 -26 -7 0
w 28 27 8 0.214178
w 28 27 -8 0.584902
w 28 -27 8 0.534445
w 28 -27 -8 0.229717
w 29 28 9 0
w 29 28 -9 1
w 29 -28 9 1
w 29 -28 -9 0
w 30 29 10 1
w 30 29 -10 1
w 30 -29 10 1
w 30 -29 -10 0
w 31 30 11 0
w 31 30 -11 1
w 31 -30 11 1
w 31 -30 -11 1
w 32 31 12 0.808912
w 32 31 -12 0.931984
w 32 -31 12 0.613508
w 32 -31 -12 0.20986
w 33 32 13 0.29103
w 33 32 -13 0.21668
w 33 -32 13 0.179731
w 33 -32 -13 0.132836
w 34 33 14 0.393908
w 34 33 -14 0.717738
w 34 -33 14 0.344887
w 34 -33 -14 0.623625
w 35 34 15 1
w 35 34 -15 1
w 35 -34 15 0
w 35 -34 -15 1
w 36 35 16 0.209121
w 36 35 -16 0.419057
w 36 -35 16 0.519664
w 36 -35 -16 0.370648
w 37 36 17 0.816036
w 37 36 -17 0.454663
w 37 -36 17 0.970413
w 37 -36 -17 0.148198
w 38 37 18 0.779325
w 38 37 -18 0.0801811
w 38 -37 18 0.584046
w 38 -37 -18 0.989184
w 39 38 19 0.875076
w 39 38 -19 0.205864
w 39 -38 19 0.87598
w 39 -38 -19 0.00791244
w 40 39 20 0
w 40 39 -20 0
w 40 -39 20 1
w 40 -39 -20 0
w 41 21 0.756166
w 41 -21 0.370603
w 42 41 22 0.417022
w 42 41 -22 0.0151607
w 42 -41 22 0.487424
w 42 -41 -22 0.626142
w 43 42 23 0
w 43 42 -23 1
w 43 -42 23 0
w 43 -42 -23 0
w 44 43 24 0
w 44 43 -24 1
w 44 -43 24 1
w 44 -43 -24 0
w 45 44 25 1
w 45 44 -25 1
w 45 -44 25 0
w 45 -44 -25 1
w 46 45 26 0.623731
w 46 45 -26 0.889025
w 46 -45 26 0.945344
w 46 -45 -26 0.893619
w 47 46 27 0.306539
w 47 46 -27 0.787133
w 47 -46 27 0.383816
w 47 -46 -27 0.0627044
w 48 47 28 0
w 48 47 -28 0
w 48 -47 28 1
w 48 -47 -28 0
w 49 48 29 0
w 49 48 -29 1
w 49 -48 29 0
w 49 -48 -29 0
w 50 49 30 0.546028
w 50 49 -30 0.305641
w 50 -49 30 0.976101
w 50 -49 -30 0.280015
w 51 50 31 0
w 51 50 -31 0
w 51 -50 31 0
w 51 -50 -31 1
w 52 51 32 0.728627
w 52 51 -32 0.752274
w 52 -51 32 0.877569
w 52 -51 -32 0.622246
w 53 52 33 1
w 53 52 -33 0
w 53 -52 33 1
w 53 -52 -33 0
w 54 53 34 0.767448
w 54 53 -34 0.726538
w 54 -53 34 0.740011
w 54 -53 -34 0.271554
w 55 54 35 0.347126
w 55 54 -35 0.782749
w 55 -54 35 0.935064
w 55 -54 -35 0.93849
w 56 55 36 0
w 56 55 -36 1
w 56 -55 36 1
w 56 -55 -36 1
w 57 56 37 0.779851
w 57 56 -37 0.447414
w 57 -56 37 0.767721
w 57 -56 -37 0.884747
w 58 57 38 0
w 58 57 -38 1
w 58 -57 38 0
w 58 -57 -38 0
w 59 58 39 0
w 59 58 -39 1
w 59 -58 39 1
w 59 -58 -39 1
w 60 59 40 0
w 60 59 -40 1
w 60 -59 40 0
w 60 -59 -40 0
w 61 41 1
w 61 -41 0
w 62 61 42 0
w 62 61 -42 1
w 62 -61 42 1
w 62 -61 -42 1
w 63 62 43 0.722258
w 63 62 -43 0.542179
w 63 -62 43 0.456892
w 63 -62 -43 0.486792
w 64 63 44 0
w 64 63 -44 0
w 64 -63 44 1
w 64 -63 -44 0
w 65 64 45 0.820151
w 65 64 -45 0.277908
w 65 -64 45 0.531973
w 65 -64 -45 0.0557704
w 66 65 46 0.293594
w 66 65 -46 0.700769
w 66 -65 46 0.888449
w 66 -65 -46 0.302027
w 67 66 47 0.83655
w 67 66 -47 0.0369977
w 67 -66 47 0.865008
w 67 -66 -47 0.0562055
w 68 67 48 0.164258
w 68 67 -48 0.0586097
w 68 -67 48 0.106815
w 68 -67 -48 0.401999
w 69 68 49 1
w 69 68 -49 0
w 69 -68 49 1
w 69 -68 -49 0
w 70 69 50 0.0422914
w 70 69 -50 0.45963
w 70 -69 50 0.865561
w 70 -69 -50 0.249069
w 71 70 51 0.82002
w 71 70 -51 0.0692198
w 71 -70 51 0.952508
w 71 -70 -51 0.351992
w 72 71 52 0
w 72 71 -52 1
w 72 -71 52 1
w 72 -71 -52 0
w 73 72 53 0.738642
w 73 72 -53 0.385302
w 73 -72 53 0.984611
w 73 -72 -53 0.60365
w 74 73 54 1
w 74 73 -54 0
w 74 -73 54 0
w 74 -73 -54 1
w 75 74 55 0
w 75 74 -55 1
w 75 -74 55 1
w 75 -74 -55 1
w 76 75 56 1
w 76 75 -56 0
w 76 -75 56 1
w 76 -75 -56 0
w 77 76 57 0.483784
w 77 76 -57 0.590794
w 77 -76 57 0.759039
w 77 -76 -57 0.436291
w 78 77 58 0.88403
w 78 77 -58 0.0965946
w 78 -77 58 0.588372
w 78 -77 -58 0.709789
w 79 78 59 0.535986
w 79 78 -59 0.448431
w 79 -78 59 0.0306493
w 79 -78 -59 0.520597
w 80 79 60 0
w 80 79 -60 1
w 80 -79 60 1
w 80 -79 -60 1
w 81 61 0.650473
w 81 -61 0.599614
w 82 81 62 0
w 82 81 -62 0
w 82 -81 62 1
w 82 -81 -62 0
w 83 82 63 0.960044
w 83 82 -63 0.179503
w 83 -82 63 0.242137
w 83 -82 -63 0.550838
w 84 83 64 0.678428
w 84 83 -64 0.493624
w 84 -83 64 0.822572
w 84 -83 -64 0.775023
w 85 84 65 1
w 85 84 -65 0
w 85 -84 65 1
w 85 -84 -65 0
w 86 85 66 1
w 86 85 -66 1
w 86 -85 66 0
w 86 -85 -66 0
w 87 86 67 0.895451
w 87 86 -67 0.0535452
w 87 -86 67 0.842755
w 87 -86 -67 0.545924
w 88 87 68 0.126813
w 88 87 -68 0.594857
w 88 -87 68 0.602328
w 88 -87 -68 0.316084
w 89 88 69 0
w 89 88 -69 1
w 89 -88 69 0
w 89 -88 -69 0
w 90 89 70 0.202586
w 90 89 -70 0.281246
w 90 -89 70 0.32059
w 90 -89 -70 0.0251585
w 91 90 71 1
w 91 90 -71 0
w 91 -90 71 1
w 91 -90 -71 0
w 92 91 72 0.927657
w 92 91 -72 0.159147
w 92 -91 72 0.571184
w 92 -91 -72 0.850833
w 93 92 73 1
w 93 92 -73 1
w 93 -92 73 1
w 93 -92 -73 0
w 94 93 74 1
w 94 93 -74 0
w 94 -93 74 1
w 94 -93 -74 0
w 95 94 75 0.971605
w 95 94 -75 0.0770234
w 95 -94 75 0.985825
w 95 -94 -75 0.235649
w 96 95 76 0.812791
w 96 95 -76 0.438235
w 96 -95 76 0.961087
w 96 -95 -76 0.13338
w 97 96 77 0
w 97 96 -77 1
w 97 -96 77 0
w 97 -96 -77 1
w 98 97 78 0.559225
w 98 97 -78 0.42165
w 98 -97 78 0.715681
w 98 -97 -78 0.130409
w 99 98 79 1
w 99 98 -79 0
w 99 -98 79 1
w 99 -98 -79 1
w 100 99 80 0.310974
w 100 99 -80 0.697859
w 100 -99 80 0.214867
w 100 -99 -80 0.198039
w 101 81 0
w 101 -81 1
w 102 101 82 1
w 102 101 -82 1
w 102 -101 82 0
w 102 -101 -82 0
w 103 102 83 0.843527
w 103 102 -83 0.132153
w 103 -102 83 0.856561
w 103 -102 -83 0.306921
w 104 103 84 1
w 104 103 -84 1
w 104 -103 84 0
w 104 -103 -84 1
w 105 104 85 0.0651524
w 105 104 -85 0.664742
w 105 -104 85 0.0174673
w 105 -104 -85 0.337636
w 106 105 86 0.571921
w 106 105 -86 0.356402
w 106 -105 86 0.371578
w 106 -105 -86 0.393176
w 107 106 87 0.0694362
w 107 106 -87 0.608043
w 107 -106 87 0.865416
w 107 -106 -87 0.483637
w 108 107 88 0.03506
w 108 107 -88 0.974861
w 108 -107 88 0.442997
w 108 -107 -88 0.440353
w 109 108 89 0
w 109 108 -89 1
w 109 -108 89 0
w 109 -108 -89 0
w 110 109 90 0
w 110 109 -90 0
w 110 -109 90 0
w 110 -109 -90 1
w 111 110 91 0.136242
w 111 110 -91 0.0290684
w 111 -110 91 0.823159
w 111 -110 -91 0.473877
w 112 111 92 0.395081
w 112 111 -92 0.83028
w 112 -111 92 0.188379
w 112 -111 -92 0.788257
w 113 112 93 0
w 113 112 -93 0
w 113 -112 93 0
w 113 -112 -93 1
w 114 113 94 0.398133
w 114 113 -94 0.716313
w 114 -113 94 0.371904
w 114 -113 -94 0.838485
w 115 114 95 0.538081
w 115 114 -95 0.122365
w 115 -114 95 0.140319
w 115 -114 -95 0.560819
w 116 115 96 0.567906
w 116 115 -96 0.976084
w 116 -115 96 0.6318
w 116 -115 -96 0.638995
w 117 116 97 0
w 117 116 -97 1
w 117 -116 97 1
w 117 -116 -97 0
w 118 117 98 1
w 118 117 -98 1
w 118 -117 98 0
w 118 -117 -98 0
w 119 118 99 1
w 119 118 -99 0
w 119 -118 99 1
w 119 -118 -99 1
w 120 119 100 1
w 120 119 -100 1
w 120 -119 100 0
w 120 -119 -100 0
w 121 101 1
w 121 -101 0
w 122 121 102 0.299108
w 122 121 -102 0.0927967
w 122 -121 102 0.240001
w 122 -121 -102 0.0122737
w 123 122 103 0.216085
w 123 122 -103 0.644073
w 123 -122 103 0.299698
w 123 -122 -103 0.556495
w 124 123 104 1
w 124 123 -104 0
w 124 -123 104 1
w 124 -123 -104 0
w 125 124 105 0
w 125 124 -105 0
w 125 -124 105 0
w 125 -124 -105 1
w 126 125 106 0.119385
w 126 125 -106 0.282226
w 126 -125 106 0.92062
w 126 -125 -106 0.49331
w 127 126 107 1
w 127 126 -107 0
w 127 -126 107 1
w 127 -126 -107 1
w 128 127 108 0.871703
w 128 127 -108 0.734728
w 128 -127 108 0.628824
w 128 -127 -108 0.111704
w 129 128 109 0.289526
w 129 128 -109 0.327789
w 129 -128 109 0.391075
w 129 -128 -109 0.589225
w 130 129 110 0.47264
w 130 129 -110 0.66416
w 130 -129 110 0.810257
w 130 -129 -110 0.814857
w 131 130 111 0.92251
w 131 130 -111 0.812805
w 131 -130 111 0.391655
w 131 -130 -111 0.409422
w 132 131 112 0
w 132 131 -112 0
w 132 -131 112 1
w 132 -131 -112 0
w 133 132 113 1
w 133 132 -113 0
w 133 -132 113 1
w 133 -132 -113 0
w 134 133 114 0.141693
w 134 133 -114 0.652615
w 134 -133 114 0.721997
w 134 -133 -114 0.770516
w 135 134 115 0.468998
w 135 134 -115 0.0600428
w 135 -134 115 0.0921077
w 135 -134 -115 0.860073
w 136 135 116 0.976392
w 136 135 -116 0.332713
w 136 -135 116 0.313428
w 136 -135 -116 0.786649
w 137 136 117 0
w 137 136 -117 0
w 137 -136 117 0
w 137 -136 -117 1
w 138 137 118 0
w 138 137 -118 1
w 138 -137 118 0
w 138 -137 -118 1
w 139 138 119 1
w 139 138 -119 1
w 139 -138 119 1
w 139 -138 -119 0
w 140 139 120 0
w 140 139 -120 1
w 140 -139 120 1
w 140 -139 -120 1
w 141 121 1
w 141 -121 0
w 142 141 122 0
w 142 141 -122 1
w 142 -141 122 0
w 142 -141 -122 1
w 143 142 123 0.280917
w 143 142 -123 0.210117
w 143 -142 123 0.393469
w 143 -142 -123 0.428487
w 144 143 124 0.102628
w 144 143 -124 0.388862
w 144 -143 124 0.20505
w 144 -143 -124 0.221208
w 145 144 125 0.270496
w 145 144 -125 0.868595
w 145 -144 125 0.356065
w 145 -144 -125 0.628714
w 146 145 126 0.696541
w 146 145 -126 0.538581
w 146 -145 126 0.813269
w 146 -145 -126 0.817929
w 147 146 127 1
w 147 146 -127 0
w 147 -146 127 0
w 147 -146 -127 1
w 148 147 128 0
w 148 147 -128 0
w 148 -147 128 1
w 148 -147 -128 0
w 149 148 129 0.3675
w 149 148 -129 0.372103
w 149 -148 129 0.771737
w 149 -148 -129 0.760969
w 150 149 130 0.283493
w 150 149 -130 0.863597
w 150 -149 130 0.189452
w 150 -149 -130 0.488543
w 151 150 131 0
w 151 150 -131 1
w 151 -150 131 0
w 151 -150 -131 1
w 152 151 132 0
w 152 151 -132 1
w 152 -151 132 0
w 152 -151 -132 0
w 153 152 133 0.36205
w 153 152 -133 0.534899
w 153 -152 133 0.255897
w 153 -152 -133 0.416899
w 154 153 134 0.386149
w 154 153 -134 0.55988
w 154 -153 134 0.617339
w 154 -153 -134 0.146829
w 155 154 135 0.178959
w 155 154 -135 0.514329
w 155 -154 135 0.0231676
w 155 -154 -135 0.950696
w 156 155 136 1
w 156 155 -136 0
w 156 -155 136 0
w 156 -155 -136 1
w 157 156 137 0.2237
w 157 156 -137 0.806641
w 157 -156 137 0.48177
w 157 -156 -137 0.1771
w 158 157 138 0.869523
w 158 157 -138 0.668599
w 158 -157 138 0.802176
w 158 -157 -138 0.795855
w 159 158 139 0.466143
w 159 158 -139 0.157905
w 159 -158 139 0.508265
w 159 -158 -139 0.72204
w 160 159 140 0.460673
w 160 159 -140 0.108189
w 160 -159 140 0.134684
w 160 -159 -140 0.0780122
w 161 141 0
w 161 -141 1
w 162 161 142 1
w 162 161 -142 0
w 162 -161 142 0
w 162 -161 -142 1
w 163 162 143 0.441856
w 163 162 -143 0.183541
w 163 -162 143 0.645883
w 163 -162 -143 0.164587
w 164 163 144 0
w 164 163 -144 0
w 164 -163 144 1
w 164 -163 -144 0
w 165 164 145 0.252939
w 165 164 -145 0.210837
w 165 -164 145 0.311736
w 165 -164 -145 0.226305
w 166 165 146 0.469641
w 166 165 -146 0.73457
w 166 -165 146 0.39902
w 166 -165 -146 0.044445
w 167 166 147 1
w 167 166 -147 1
w 167 -166 147 0
w 167 -166 -147 1
w 168 167 148 0.530227
w 168 167 -148 0.531574
w 168 -167 148 0.773795
w 168 -167 -148 0.737894
w 169 168 149 0.406469
w 169 168 -149 0.17975
w 169 -168 149 0.759761
w 169 -168 -149 0.052352
w 170 169 150 0
w 170 169 -150 1
w 170 -169 150 0
w 170 -169 -150 1
w 171 170 151 0.506575
w 171 170 -151 0.00428015
w 171 -170 151 0.124374
w 171 -170 -151 0.818311
w 172 171 152 0
w 172 171 -152 0
w 172 -171 152 1
w 172 -171 -152 1
w 173 172 153 1
w 173 172 -153 0
w 173 -172 153 1
w 173 -172 -153 1
w 174 173 154 1
w 174 173 -154 0
w 174 -173 154 1
w 174 -173 -154 1
w 175 174 155 0.577605
w 175 174 -155 0.656668
w 175 -174 155 0.881525
w 175 -174 -155 0.337365
w 176 175 156 0.225862
w 176 175 -156 0.504366
w 176 -175 156 0.213896
w 176 -175 -156 0.216557
w 177 176 157 1
w 177 176 -157 1
w 177 -176 157 1
w 177 -176 -157 0
w 178 177 158 1
w 178 177 -158 1
w 178 -177 158 1
w 178 -177 -158 0
w 179 178 159 0
w 179 178 -159 0
w 179 -178 159 0
w 179 -178 -159 1
w 180 179 160 1
w 180 179 -160 0
w 180 -179 160 0
w 180 -179 -160 0
w 181 161 0.00991791
w 181 -161 0.0565921
w 182 181 162 0.347283
w 182 181 -162 0.765612
w 182 -181 162 0.822826
w 182 -181 -162 0.851649
w 183 182 163 0.0393834
w 183 182 -163 0.107357
w 183 -182 163 0.106942
w 183 -182 -163 0.762516
w 184 183 164 0
w 184 183 -164 1
w 184 -183 164 1
w 184 -183 -164 1
w 185 184 165 0
w 185 184 -165 1
w 185 -184 165 1
w 185 -184 -165 0
w 186 185 166 0.968469
w 186 185 -166 0.979556
w 186 -185 166 0.0574928
w 186 -185 -166 0.118193
w 187 186 167 0.489806
w 187 186 -167 0.518117
w 187 -186 167 0.708659
w 187 -186 -167 0.499724
w 188 187 168 0.305623
w 188 187 -168 0.847007
w 188 -187 168 0.340321
w 188 -187 -168 0.12845
w 189 188 169 0.31983
w 189 188 -169 0.167833
w 189 -188 169 0.806013
w 189 -188 -169 0.426771
w 190 189 170 0.173357
w 190 189 -170 0.78552
w 190 -189 170 0.234309
w 190 -189 -170 0.0312748
w 191 190 171 0
w 191 190 -171 1
w 191 -190 171 1
w 191 -190 -171 1
w 192 191 172 1
w 192 191 -172 1
w 192 -191 172 1
w 192 -191 -172 0
w 193 192 173 0
w 193 192 -173 0
w 193 -192 173 0
w 193 -192 -173 1
w 194 193 174 0.261754
w 194 193 -174 0.38347
w 194 -193 174 0.182624
w 194 -193 -174 0.390204
w 195 194 175 1
w 195 194 -175 1
w 195 -194 175 0
w 195 -194 -175 1
w 196 195 176 0
w 196 195 -176 1
w 196 -195 176 1
w 196 -195 -176 0
w 197 196 177 0.0903596
w 197 196 -177 0.437693
w 197 -196 177 0.775051
w 197 -196 -177 0.753174
w 198 197 178 0.264491
w 198 197 -178 0.384458
w 198 -197 178 0.966639
w 198 -197 -178 0.811424
w 199 198 179 0
w 199 198 -179 0
w 199 -198 179 1
w 199 -198 -179 0
w 200 199 180 0
w 200 199 -180 0
w 200 -199 180 1
w 200 -199 -180 0
w 201 181 0.850222
w 201 -181 0.928908
w 202 201 182 0
w 202 201 -182 0
w 202 -201 182 0
w 202 -201 -182 1
w 203 202 183 0.591316
w 203 202 -183 0.892631
w 203 -202 183 0.485054
w 203 -202 -183 0.681676
w 204 203 184 0
w 204 203 -184 0
w 204 -203 184 1
w 204 -203 -184 0
w 205 204 185 0.00935022
w 205 204 -185 0.336021
w 205 -204 185 0.953242
w 205 -204 -185 0.223461
w 206 205 186 1
w 206 205 -186 0
w 206 -205 186 1
w 206 -205 -186 1
w 207 206 187 0.336906
w 207 206 -187 0.0250546
w 207 -206 187 0.647897
w 207 -206 -187 0.187128
w 208 207 188 0.0281328
w 208 207 -188 0.92549
w 208 -207 188 0.812096
w 208 -207 -188 0.896754
w 209 208 189 0.384975
w 209 208 -189 0.488071
w 209 -208 189 0.61798
w 209 -208 -189 0.870029
w 210 209 190 0
w 210 209 -190 0
w 210 -209 190 1
w 210 -209 -190 1
w 211 210 191 0.423904
w 211 210 -191 0.000365152
w 211 -210 191 0.990752
w 211 -210 -191 0.377146
w 212 211 192 0
w 212 211 -192 1
w 212 -211 192 1
w 212 -211 -192 1
w 213 212 193 0
w 213 212 -193 1
w 213 -212 193 0
w 213 -212 -193 0
w 214 213 194 1
w 214 213 -194 0
w 214 -213 194 0
w 214 -213 -194 0
w 215 214 195 0.506604
w 215 214 -195 0.50408
w 215 -214 195 0.5366
w 215 -214 -195 0.376632
w 216 215 196 0.484903
w 216 215 -196 0.506766
w 216 -215 196 0.278423
w 216 -215 -196 0.475918
w 217 216 197 0
w 217 216 -197 1
w 217 -216 197 0
w 217 -216 -197 1
w 218 217 198 0.327185
w 218 217 -198 0.811388
w 218 -217 198 0.317637
w 218 -217 -198 0.0709314
w 219 218 199 0
w 219 218 -199 0
w 219 -218 199 1
w 219 -218 -199 0
w 220 219 200 1
w 220 219 -200 1
w 220 -219 200 0
w 220 -219 -200 1
w 221 201 0.531255
w 221 -201 0.43524
w 222 221 202 1
w 222 221 -202 1
w 222 -221 202 0
w 222 -221 -202 0
w 223 222 203 0
w 223 222 -203 1
w 223 -222 203 0
w 223 -222 -203 0
w 224 223 204 0.225378
w 224 223 -204 0.205069
w 224 -223 204 0.959569
w 224 -223 -204 0.0367663
w 225 224 205 0.0305008
w 225 224 -205 0.17867
w 225 -224 205 0.283569
w 225 -224 -205 0.182085
w 226 225 206 0.135554
w 226 225 -206 0.601449
w 226 -225 206 0.483151
w 226 -225 -206 0.106793
w 227 226 207 0
w 227 226 -207 0
w 227 -226 207 1
w 227 -226 -207 1
w 228 227 208 0.813194
w 228 227 -208 0.658899
w 228 -227 208 0.750526
w 228 -227 -208 0.365952
w 229 228 209 0.194104
w 229 228 -209 0.394628
w 229 -228 209 0.457672
w 229 -228 -209 0.340009
w 230 229 210 0.0900563
w 230 229 -210 0.565387
w 230 -229 210 0.104658
w 230 -229 -210 0.0496257
w 231 230 211 0.627364
w 231 230 -211 0.0801265
w 231 -230 211 0.780824
w 231 -230 -211 0.910933
w 232 231 212 0
w 232 231 -212 1
w 232 -231 212 0
w 232 -231 -212 1
w 233 232 213 1
w 233 232 -213 1
w 233 -232 213 1
w 233 -232 -213 0
w 234 233 214 0
w 234 233 -214 1
w 234 -233 214 1
w 234 -233 -214 0
w 235 234 215 0
w 235 234 -215 1
w 235 -234 215 1
w 235 -234 -215 1
w 236 235 216 1
w 236 235 -216 0
w 236 -235 216 0
w 236 -235 -216 0
w 237 236 217 0
w 237 236 -217 0
w 237 -236 217 1
w 237 -236 -217 0
w 238 237 218 0.775061
w 238 237 -218 0.522664
w 238 -237 218 0.985886
w 238 -237 -218 0.638721
w 239 238 219 0
w 239 238 -219 1
w 239 -238 219 0
w 239 -238 -219 0
w 240 239 220 0.0136239
w 240 239 -220 0.219181
w 240 -239 220 0.175824
w 240 -239 -220 0.871456
w 241 221 0.178052
w 241 -221 0.706826
w 242 241 222 0.574908
w 242 241 -222 0.999868
w 242 -241 222 0.697053
w 242 -241 -222 0.871352
w 243 242 223 1
w 243 242 -223 1
w 243 -242 223 0
w 243 -242 -223 0
w 244 243 224 1
w 244 243 -224 0
w 244 -243 224 1
w 244 -243 -224 1
w 245 244 225 0
w 245 244 -225 1
w 245 -244 225 0
w 245 -244 -225 0
w 246 245 226 0
w 246 245 -226 0
w 246 -245 226 1
w 246 -245 -226 1
w 247 246 227 0.174159
w 247 246 -227 0.415558
w 247 -246 227 0.77344
w 247 -246 -227 0.352211
w 248 247 228 1
w 248 247 -228 1
w 248 -247 228 1
w 248 -247 -228 0
w 249 248 229 0.505217
w 249 248 -229 0.429987
w 249 -248 229 0.0709245
w 249 -248 -229 0.320907
w 250 249 230 1
w 250 249 -230 0
w 250 -249 230 1
w 250 -249 -230 0
w 251 250 231 0.0779759
w 251 250 -231 0.83837
w 251 -250 231 0.49537
w 251 -250 -231 0.793764
w 252 251 232 0
w 252 251 -232 0
w 252 -251 232 1
w 252 -251 -232 1
w 253 252 233 0.926644
w 253 252 -233 0.126651
w 253 -252 233 0.283902
w 253 -252 -233 0.700085
w 254 253 234 1
w 254 253 -234 0
w 254 -253 234 1
w 254 -253 -234 0
w 255 254 235 0
w 255 254 -235 0
w 255 -254 235 1
w 255 -254 -235 1
w 256 255 236 1
w 256 255 -236 0
w 256 -255 236 1
w 256 -255 -236 0
w 257 256 237 0
w 257 256 -237 0
w 257 -256 237 1
w 257 -256 -237 0
w 258 257 238 0
w 258 257 -238 0
w 258 -257 238 1
w 258 -257 -238 0
w 259 258 239 1
w 259 258 -239 0
w 259 -258 239 1
w 259 -258 -239 0
w 260 259 240 0.764686
w 260 259 -240 0.207564
w 260 -259 240 0.937076
w 260 -259 -240 0.170666
w 261 241 0.0405371
w 261 -241 0.375116
w 262 261 242 0.573986
w 262 261 -242 0.650491
w 262 -261 242 0.124519
w 262 -261 -242 0.202065
w 263 262 243 0
w 263 262 -243 0
w 263 -262 243 1
w 263 -262 -243 0
w 264 263 244 1
w 264 263 -244 0
w 264 -263 244 1
w 264 -263 -244 1
w 265 264 245 0
w 265 264 -245 1
w 265 -264 245 1
w 265 -264 -245 1
w 266 265 246 1
w 266 265 -246 1
w 266 -265 246 0
w 266 -265 -246 0
w 267 266 247 0.218095
w 267 266 -247 0.725343
w 267 -266 247 0.422286
w 267 -266 -247 0.258632
w 268 267 248 0
w 268 267 -248 1
w 268 -267 248 0
w 268 -267 -248 1
w 269 268 249 0
w 269 268 -249 1
w 269 -268 249 0
w 269 -268 -249 0
w 270 269 250 1
w 270 269 -250 1
w 270 -269 250 1
w 270 -269 -250 0
w 271 270 251 1
w 271 270 -251 0
w 271 -270 251 0
w 271 -270 -251 1
w 272 271 252 1
w 272 271 -252 0
w 272 -271 252 0
w 272 -271 -252 0
w 273 272 253 0.388991
w 273 272 -253 0.326696
w 273 -272 253 0.388554
w 273 -272 -253 0.811277
w 274 273 254 0.489013
w 274 273 -254 0.00342047
w 274 -273 254 0.417945
w 274 -273 -254 0.239963
w 275 274 255 1
w 275 274 -255 0
w 275 -274 255 1
w 275 -274 -255 0
w 276 275 256 0.0964475
w 276 275 -256 0.0183691
w 276 -275 256 0.154979
w 276 -275 -256 0.565831
w 277 276 257 1
w 277 276 -257 0
w 277 -276 257 1
w 277 -276 -257 1
w 278 277 258 0.176276
w 278 277 -258 0.629902
w 278 -277 258 0.807282
w 278 -277 -258 0.879083
w 279 278 259 0.470492
w 279 278 -259 0.268074
w 279 -278 259 0.0652005
w 279 -278 -259 0.859046
w 280 279 260 0
w 280 279 -260 0
w 280 -279 260 0
w 280 -279 -260 1
w 281 261 0.402855
w 281 -261 0.521102
w 282 281 262 0.168228
w 282 281 -262 0.663528
w 282 -281 262 0.771022
w 282 -281 -262 0.264675
w 283 282 263 0.926001
w 283 282 -263 0.830507
w 283 -282 263 0.0871433
w 283 -282 -263 0.297927
w 284 283 264 0
w 284 283 -264 0
w 284 -283 264 0
w 284 -283 -264 1
w 285 284 265 0.0945913
w 285 284 -265 0.468653
w 285 -284 265 0.187237
w 285 -284 -265 0.362665
w 286 285 266 0.0462832
w 286 285 -266 0.442017
w 286 -285 266 0.184382
w 286 -285 -266 0.394343
w 287 286 267 0.252856
w 287 286 -267 0.982365
w 287 -286 267 0.927643
w 287 -286 -267 0.773957
w 288 287 268 0.0958708
w 288 287 -268 0.437486
w 288 -287 268 0.630032
w 288 -287 -268 0.360546
w 289 288 269 1
w 289 288 -269 0
w 289 -288 269 1
w 289 -288 -269 0
w 290 289 270 1
w 290 289 -270 0
w 290 -289 270 0
w 290 -289 -270 1
w 291 290 271 0.0279735
w 291 290 -271 0.555859
w 291 -290 271 0.15301
w 291 -290 -271 0.21521
w 292 291 272 0.686863
w 292 291 -272 0.261494
w 292 -291 272 0.360541
w 292 -291 -272 0.871246
w 293 292 273 0.885329
w 293 292 -273 0.124101
w 293 -292 273 0.638201
w 293 -292 -273 0.812972
w 294 293 274 0.497211
w 294 293 -274 0.908843
w 294 -293 274 0.335545
w 294 -293 -274 0.127244
w 295 294 275 1
w 295 294 -275 0
w 295 -294 275 1
w 295 -294 -275 1
w 296 295 276 0.862208
w 296 295 -276 0.907213
w 296 -295 276 0.491446
w 296 -295 -276 0.173437
w 297 296 277 1
w 297 296 -277 0
w 297 -296 277 0
w 297 -296 -277 0
w 298 297 278 0
w 298 297 -278 1
w 298 -297 278 1
w 298 -297 -278 1
w 299 298 279 0.333951
w 299 298 -279 0.0887349
w 299 -298 279 0.0110233
w 299 -298 -279 0.972152
w 300 299 280 0.909082
w 300 299 -280 0.469363
w 300 -299 280 0.81055
w 300 -299 -280 0.244627
w 301 281 0.079939
w 301 -281 0.699555
w 302 301 282 1
w 302 301 -282 1
w 302 -301 282 0
w 302 -301 -282 0
w 303 302 283 0
w 303 302 -283 1
w 303 -302 283 1
w 303 -302 -283 1
w 304 303 284 0.561043
w 304 303 -284 0.813184
w 304 -303 284 0.194058
w 304 -303 -284 0.403908
w 305 304 285 0.872173
w 305 304 -285 0.607314
w 305 -304 285 0.715782
w 305 -304 -285 0.206124
w 306 305 286 0.726805
w 306 305 -286 0.178275
w 306 -305 286 0.597756
w 306 -305 -286 0.635887
w 307 306 287 0.408306
w 307 306 -287 0.880514
w 307 -306 287 0.244245
w 307 -306 -287 0.488245
w 308 307 288 0.524129
w 308 307 -288 0.0286255
w 308 -307 288 0.941077
w 308 -307 -288 0.341251
w 309 308 289 0
w 309 308 -289 0
w 309 -308 289 1
w 309 -308 -289 0
w 310 309 290 1
w 310 309 -290 0
w 310 -309 290 1
w 310 -309 -290 1
w 311 310 291 0.85091
w 311 310 -291 0.418267
w 311 -310 291 0.492015
w 311 -310 -291 0.0570335
w 312 311 292 1
w 312 311 -292 0
w 312 -311 292 0
w 312 -311 -292 1
w 313 312 293 0.120377
w 313 312 -293 0.735222
w 313 -312 293 0.127192
w 313 -312 -293 0.608622
w 314 313 294 1
w 314 313 -294 0
w 314 -313 294 0
w 314 -313 -294 1
w 315 314 295 1
w 315 314 -295 0
w 315 -314 295 0
w 315 -314 -295 0
w 316 315 296 0.718714
w 316 315 -296 0.723954
w 316 -315 296 0.839118
w 316 -315 -296 0.529668
w 317 316 297 0.690028
w 317 316 -297 0.947935
w 317 -316 297 0.992202
w 317 -316 -297 0.747062
w 318 317 298 1
w 318 317 -298 0
w 318 -317 298 0
w 318 -317 -298 0
w 319 318 299 0.8947
w 319 318 -299 0.800952
w 319 -318 299 0.99251
w 319 -318 -299 0.503321
w 320 319 300 1
w 320 319 -300 0
w 320 -319 300 0
w 320 -319 -300 0
w 321 301 0
w 321 -301 1
w 322 321 302 0
w 322 321 -302 1
w 322 -321 302 0
w 322 -321 -302 1
w 323 322 303 0.779329
w 323 322 -303 0.984234
w 323 -322 303 0.398327
w 323 -322 -303 0.279516
w 324 323 304 0.346262
w 324 323 -304 0.271718
w 324 -323 304 0.421323
w 324 -323 -304 0.408513
w 325 324 305 0
w 325 324 -305 0
w 325 -324 305 1
w 325 -324 -305 0
w 326 325 306 1
w 326 325 -306 0
w 326 -325 306 1
w 326 -325 -306 0
w 327 326 307 0.838275
w 327 326 -307 0.541757
w 327 -326 307 0.930456
w 327 -326 -307 0.676552
w 328 327 308 0.21519
w 328 327 -308 0.826497
w 328 -327 308 0.875926
w 328 -327 -308 0.360305
w 329 328 309 0.655255
w 329 328 -309 0.344539
w 329 -328 309 0.093484
w 329 -328 -309 0.934771
w 330 329 310 0
w 330 329 -310 1
w 330 -329 310 1
w 330 -329 -310 1
w 331 330 311 0.0310944
w 331 330 -311 0.237702
w 331 -330 311 0.112829
w 331 -330 -311 0.108629
w 332 331 312 0.374351
w 332 331 -312 0.689485
w 332 -331 312 0.0527904
w 332 -331 -312 0.279705
w 333 332 313 1
w 333 332 -313 0
w 333 -332 313 1
w 333 -332 -313 1
w 334 333 314 0.556556
w 334 333 -314 0.394114
w 334 -333 314 0.517938
w 334 -333 -314 0.916862
w 335 334 315 0
w 335 334 -315 1
w 335 -334 315 0
w 335 -334 -315 0
w 336 335 316 0
w 336 335 -316 1
w 336 -335 316 1
w 336 -335 -316 1
w 337 336 317 0
w 337 336 -317 1
w 337 -336 317 0
w 337 -336 -317 0
w 338 337 318 0.0513244
w 338 337 -318 0.299969
w 338 -337 318 0.8813
w 338 -337 -318 0.331029
w 339 338 319 0.772366
w 339 338 -319 0.15249
w 339 -338 319 0.0522458
w 339 -338 -319 0.339983
w 340 339 320 0.608802
w 340 339 -320 0.734098
w 340 -339 320 0.312441
w 340 -339 -320 0.525663
w 341 321 0.485634
w 341 -321 0.787064
w 342 341 322 1
w 342 341 -322 1
w 342 -341 322 0
w 342 -341 -322 0
w 343 342 323 0.0993857
w 343 342 -323 0.911734
w 343 -342 323 0.351735
w 343 -342 -323 0.60124
w 344 343 324 1
w 344 343 -324 0
w 344 -343 324 0
w 344 -343 -324 0
w 345 344 325 0.862929
w 345 344 -325 0.411062
w 345 -344 325 0.222573
w 345 -344 -325 0.635295
w 346 345 326 0.274819
w 346 345 -326 0.975278
w 346 -345 326 0.358055
w 346 -345 -326 0.883621
w 347 346 327 0.670495
w 347 346 -327 0.409284
w 347 -346 327 0.532745
w 347 -346 -327 0.156129
w 348 347 328 0
w 348 347 -328 1
w 348 -347 328 1
w 348 -347 -328 0
w 349 348 329 0.0512057
w 349 348 -329 0.26688
w 349 -348 329 0.56951
w 349 -348 -329 0.402941
w 350 349 330 0.722629
w 350 349 -330 0.431649
w 350 -349 330 0.0798445
w 350 -349 -330 0.704257
w 351 350 331 0.591538
w 351 350 -331 0.567186
w 351 -350 331 0.922744
w 351 -350 -331 0.814111
w 352 351 332 0
w 352 351 -332 0
w 352 -351 332 1
w 352 -351 -332 0
w 353 352 333 0.887135
w 353 352 -333 0.514846
w 353 -352 333 0.381835
w 353 -352 -333 0.419879
w 354 353 334 0.578184
w 354 353 -334 0.958748
w 354 -353 334 0.420701
w 354 -353 -334 0.841798
w 355 354 335 0
w 355 354 -335 0
w 355 -354 335 1
w 355 -354 -335 0
w 356 355 336 1
w 356 355 -336 0
w 356 -355 336 1
w 356 -355 -336 0
w 357 356 337 1
w 357 356 -337 1
w 357 -356 337 1
w 357 -356 -337 0
w 358 357 338 0.84454
w 358 357 -338 0.648317
w 358 -357 338 0.835666
w 358 -357 -338 0.0222992
w 359 358 339 1
w 359 358 -339 0
w 359 -358 339 0
w 359 -358 -339 0
w 360 359 340 1
w 360 359 -340 1
w 360 -359 340 0
w 360 -359 -340 1
w 361 341 1
w 361 -341 0
w 362 361 342 0.807425
w 362 361 -342 0.825654
w 362 -361 342 0.798982
w 362 -361 -342 0.0686665
w 363 362 343 1
w 363 362 -343 0
w 363 -362 343 1
w 363 -362 -343 1
w 364 363 344 0
w 364 363 -344 1
w 364 -363 344 0
w 364 -363 -344 1
w 365 364 345 0.924779
w 365 364 -345 0.780042
w 365 -364 345 0.0688561
w 365 -364 -345 0.732995
w 366 365 346 0.0763693
w 366 365 -346 0.923047
w 366 -365 346 0.0187894
w 366 -365 -346 0.754857
w 367 366 347 0.306851
w 367 366 -347 0.854046
w 367 -366 347 0.301316
w 367 -366 -347 0.721154
w 368 367 348 1
w 368 367 -348 0
w 368 -367 348 0
w 368 -367 -348 1
w 369 368 349 0.0536361
w 369 368 -349 0.12991
w 369 -368 349 0.00699796
w 369 -368 -349 0.324779
w 370 369 350 0.349375
w 370 369 -350 0.237982
w 370 -369 350 0.823634
w 370 -369 -350 0.438488
w 371 370 351 0.399823
w 371 370 -351 0.363266
w 371 -370 351 0.775768
w 371 -370 -351 0.468679
w 372 371 352 1
w 372 371 -352 1
w 372 -371 352 0
w 372 -371 -352 1
w 373 372 353 0
w 373 372 -353 0
w 373 -372 353 0
w 373 -372 -353 1
w 374 373 354 0.185664
w 374 373 -354 0.816261
w 374 -373 354 0.0406165
w 374 -373 -354 0.0430303
w 375 374 355 1
w 375 374 -355 0
w 375 -374 355 1
w 375 -374 -355 1
w 376 375 356 1
w 376 375 -356 1
w 376 -375 356 0
w 376 -375 -356 1
w 377 376 357 0
w 377 376 -357 1
w 377 -376 357 1
w 377 -376 -357 0
w 378 377 358 0
w 378 377 -358 1
w 378 -377 358 1
w 378 -377 -358 0
w 379 378 359 1
w 379 378 -359 0
w 379 -378 359 0
w 379 -378 -359 1
w 380 379 360 0.68312
w 380 379 -360 0.321974
w 380 -379 360 0.45032
w 380 -379 -360 0.723736
w 381 361 0
w 381 -361 1
w 382 381 362 1
w 382 381 -362 0
w 382 -381 362 0
w 382 -381 -362 1
w 383 382 363 0.000692183
w 383 382 -363 0.542545
w 383 -382 363 0.133594
w 383 -382 -363 0.433415
w 384 383 364 1
w 384 383 -364 0
w 384 -383 364 0
w 384 -383 -364 1
w 385 384 365 1
w 385 384 -365 0
w 385 -384 365 0
w 385 -384 -365 1
w 386 385 366 0.655364
w 386 385 -366 0.0760634
w 386 -385 366 0.740845
w 386 -385 -366 0.289422
w 387 386 367 0.0628193
w 387 386 -367 0.739742
w 387 -386 367 0.482919
w 387 -386 -367 0.427824
w 388 387 368 0.844517
w 388 387 -368 0.889494
w 388 -387 368 0.0290812
w 388 -387 -368 0.850974
w 389 388 369 0.893772
w 389 388 -369 0.851666
w 389 -388 369 0.315156
w 389 -388 -369 0.0273657
w 390 389 370 1
w 390 389 -370 1
w 390 -389 370 1
w 390 -389 -370 0
w 391 390 371 0.666257
w 391 390 -371 0.391585
w 391 -390 371 0.669351
w 391 -390 -371 0.571238
w 392 391 372 0.324715
w 392 391 -372 0.647302
w 392 -391 372 0.736965
w 392 -391 -372 0.614137
w 393 392 373 0
w 393 392 -373 0
w 393 -392 373 1
w 393 -392 -373 1
w 394 393 374 0.73392
w 394 393 -374 0.117103
w 394 -393 374 0.992619
w 394 -393 -374 0.584895
w 395 394 375 0.886391
w 395 394 -375 0.436561
w 395 -394 375 0.20487
w 395 -394 -375 0.913757
w 396 395 376 0.717723
w 396 395 -376 0.743442
w 396 -395 376 0.236126
w 396 -395 -376 0.859196
w 397 396 377 0.872265
w 397 396 -377 0.525453
w 397 -396 377 0.904435
w 397 -396 -377 0.541616
w 398 397 378 1
w 398 397 -378 0
w 398 -397 378 0
w 398 -397 -378 1
w 399 398 379 1
w 399 398 -379 1
w 399 -398 379 0
w 399 -398 -379 1
w 400 399 380 0.797885
w 400 399 -380 0.773802
w 400 -399 380 0.782016
w 400 -399 -380 0.790504